c --- [ banner ] -------------------------------------------------------------
c 
c CaDiCaL SAT Solver
c Copyright (c) 2016-2023 A. Biere, M. Fleury, N. Froleyks, K. Fazekas, F. Pollitt
c 
c Version 1.9.5
c g++ (Ubuntu 11.4.0-1ubuntu1~22.04) 11.4.0 -Wall -Wextra -O3 -DNDEBUG -static
c Thu Mar 7 06:16:21 CET 2024 Linux pc101447 6.5.0-17-generic x86_64
c 
c --- [ limit ] --------------------------------------------------------------
c 
c setting time limit to 3600 seconds real time (due to '-t 3600')
c 
c --- [ parsing input ] ------------------------------------------------------
c 
c reading DIMACS file from '/home/oliveras/SAT-comp-2023//037d21e060a2e3eab8b080aa84ceee75-mm-1x10-10-10-sb.1.shuffled-as.sat03-1489.cnf'
c opening file to read '/home/oliveras/SAT-comp-2023//037d21e060a2e3eab8b080aa84ceee75-mm-1x10-10-10-sb.1.shuffled-as.sat03-1489.cnf'
c found 'p cnf 2396 83733' header
c parsed 83733 clauses in 0.08 seconds process time
c 
c --- [ options ] ------------------------------------------------------------
c 
c   --seed=1                       (different from default '0')
c 
c --- [ solving ] ------------------------------------------------------------
c 
c time measured in process time since initialization
c 
c  seconds  reductions  redundant  irredundant
c         MB    restarts       trail     variables
c          level   conflicts       glue       remaining
c 
c *  0.08 10  0 0   0    0    0  0% 0 83733 2396 100%
c {  0.09 10  0 0   0    0    0  0% 0 83733 2396 100%
c -  0.11 12 44 1  30  300  267 29% 7 83733 2396 100%
c -  0.16 17 36 2 112  901  753 33% 8 83733 2396 100%
c }  0.17 17 33 2 115 1000  837 33% 8 83733 2396 100%
c [  0.17 17  0 2 115 1000  837  0% 0 83733 2396 100%
c O  0.17 17 17 2 115 1005  841 36% 4 83733 2396 100%
c -  0.22 18 34 3 115 1801 1271 39% 18 83733 2396 100%
c ]  0.27 18 33 3 116 3001 2411 37% 19 83733 2396 100%
c {  0.27 18 33 3 116 3001 2411 33% 8 83733 2396 100%
c -  0.28 18 33 4 116 3001 1771 33% 8 83733 2396 100%
c F  0.29 18 33 4 116 3007 1777 33% 8 83733 2396 100%
c -  0.39 17 23 5 201 4504 1751 32% 7 83733 2396 100%
c d  0.43 17 25 5 321 5000 1753 33% 7 83569 2384 99%
c 2  0.45 17 25 5 321 5000 2414 33% 7 83390 2384 99%
c p  0.45 17 25 5 321 5000 3405 33% 7 83390 2381 99%
c d  0.46 17 25 5 321 5000 2587 33% 7 82790 2380 99%
c d  0.46 17 25 5 321 5000 2585 33% 7 82772 2371 99%
c #  0.52 17 32 5 544 6009 3543 35% 8 82772 2371 99%
c -  0.55 21 34 6 608 6304 2497 35% 8 82772 2371 99%
c 
c  seconds  reductions  redundant  irredundant
c         MB    restarts       trail     variables
c          level   conflicts       glue       remaining
c 
c }  0.59 21 36 6 778 7002 3169 36% 9 82772 2371 99%
c [  0.59 21 33 6 778 7002 3169 37% 19 82772 2371 99%
c -  0.65 21 52 7 779 8404 3488 48% 21 82772 2371 99%
c I  0.72 21 62 7 780 10010 5028 53% 24 82772 2371 99%
c i  0.72 21 62 7 780 10021 5035 53% 24 82772 2369 99%
c s  0.75 21 60 7 781 10256 5230 51% 23 82606 2369 99%
c v  0.81 21 60 7 781 10256 5230 51% 23 82534 2369 99%
c w  0.82 21 60 7 781 10256 5228 51% 23 82534 2369 99%
c t  0.82 21 60 7 781 10256 5216 51% 23 82534 2369 99%
c e  0.86 21 60 7 781 10256 4510 51% 23 81523 2278 95%
c s  0.89 21 60 7 781 10256 4503 51% 23 81469 2278 95%
c -  0.95 21 55 8 781 10805 3387 49% 21 81469 2278 95%
c -  1.08 21 41 9 783 13505 3729 44% 17 81469 2278 95%
c p  1.16 21 36 9 783 15000 4694 42% 16 81469 2278 95%
c ]  1.16 21 36 9 783 15002 4696 42% 16 81469 2278 95%
c {  1.16 21 36 9 783 15002 4696 36% 9 81469 2278 95%
c B  1.17 21 36 9 786 15011 4705 36% 9 81469 2278 95%
c -  1.24 21 41 10 1056 16506 4563 37% 9 81469 2278 95%
c -  1.40 16 34 11 1201 19806 5848 37% 9 81469 2278 95%
c W  1.49 16 31 11 1201 21012 6759 37% 8 81469 2278 95%
c 
c  seconds  reductions     redundant  irredundant
c         MB     restarts         trail     variables
c          level      conflicts       glue       remaining
c 
c -  1.62 17 27 12 1210 23406 6337 36% 8 81469 2278 95%
c -  1.82 17 22 13 1211 27306 7200 35% 7 81469 2278 95%
c i  1.85 17 22 13 1211 27875 7476 35% 7 81469 2277 95%
c F  1.86 17 22 13 1232 28014 7606 35% 7 81469 2277 95%
c p  1.98 17 25 13 1758 30000 9562 35% 8 81469 2277 95%
c s  2.11 19 26 13 1996 30901 10386 35% 8 81446 2277 95%
c w  2.18 19 26 13 1996 30901 10374 35% 8 81446 2277 95%
c s  2.26 19 26 13 1996 30901 10370 35% 8 81204 2277 95%
c }  2.29 19 26 13 2020 31002 10466 35% 8 81204 2277 95%
c [  2.29 19 36 13 2020 31002 10466 42% 16 81204 2277 95%
c -  2.32 19 38 14 2020 31507 5734 43% 16 81204 2277 95%
c -  2.52 19 43 15 2023 36007 8084 44% 18 81204 2277 95%
c B  2.52 19 43 15 2023 36015 8091 44% 18 81204 2277 95%
c -  2.76 20 49 16 2026 40808 8485 47% 21 81204 2277 95%
c W  3.00 20 52 16 2027 45016 12432 46% 23 81204 2277 95%
c -  3.06 20 52 17 2028 45908 8878 46% 24 81204 2277 95%
c p  3.29 20 52 17 2028 50001 12613 46% 25 81204 2277 95%
c -  3.38 20 52 18 2028 51309 9367 46% 26 81204 2277 95%
c O  3.59 20 53 18 2029 55019 12868 47% 27 81204 2277 95%
c -  3.70 18 51 19 2031 57009 9631 46% 26 81204 2277 95%
c 
c  seconds  reductions      redundant   irredundant
c         MB     restarts          trail      variables
c          level      conflicts        glue        remaining
c 
c s  3.94 19 46 19 2034 61841 13765 44% 23 81204 2277 95%
c v  3.99 20 46 19 2034 61841 13765 44% 23 81141 2277 95%
c w  4.01 20 46 19 2034 61841 13761 44% 23 81141 2277 95%
c s  4.02 20 46 19 2034 61841 13751 44% 23 81094 2277 95%
c ]  4.09 20 45 19 2035 63002 14740 44% 23 81094 2277 95%
c {  4.09 20 26 19 2035 63002 14740 35% 8 81094 2277 95%
c -  4.11 22 26 20 2038 63009 9707 35% 8 81094 2277 95%
c B  4.31 22 30 20 2838 66020 12586 36% 8 81094 2277 95%
c -  4.53 22 33 21 3646 69310 11501 36% 9 81094 2277 95%
c p  4.95 22 37 21 5121 75001 17135 37% 9 81094 2277 95%
c -  5.02 22 37 22 5226 75910 13117 37% 9 81094 2277 95%
c W  5.23 22 37 22 5606 78022 15121 37% 10 81094 2277 95%
c -  5.57 26 40 23 6645 82810 14707 38% 10 81094 2277 95%
c -  6.04 26 41 24 7907 90010 16116 38% 10 81094 2277 95%
c #  6.12 26 41 24 8164 91024 17105 38% 10 81094 2277 95%
c -  6.63 26 43 25 9642 97511 17499 39% 11 81094 2277 95%
c p  7.20 26 44 25 11088 105004 24873 39% 11 81094 2277 95%
c B  7.21 26 44 25 11094 105027 24895 39% 11 81094 2277 95%
c -  7.25 17 45 26 11163 105311 18657 39% 11 81094 2277 95%
c -  7.91 17 47 27 12969 113412 19908 40% 12 81094 2277 95%
c 
c  seconds  reductions        redundant   irredundant
c         MB      restarts           trail      variables
c          level       conflicts         glue        remaining
c 
c W  8.60 17 48 27 14448 120028 26312 40% 12 81094 2277 95%
c -  8.76 17 48 28 14779 121813 21154 40% 12 81094 2277 95%
c }  9.10 17 48 28 15442 127002 26044 40% 12 81094 2277 95%
c [  9.10 17 45 28 15442 127002 26044 44% 23 81094 2277 95%
c -  9.29 17 42 29 15442 130515 21262 43% 22 81094 2277 95%
c B  9.58 17 39 29 15447 136029 25884 42% 21 81094 2277 95%
c -  9.79 18 41 30 15449 139517 20354 43% 21 81094 2277 95%
c p  9.83 18 41 30 15449 140005 20955 44% 21 81094 2277 95%
c - 10.33 19 45 31 15450 148817 19751 47% 24 81094 2277 95%
c W 10.66 19 46 31 15451 153030 23780 48% 25 81094 2277 95%
c - 11.02 19 47 32 15451 158418 19451 48% 26 81094 2277 95%
c - 11.66 19 48 33 15452 168318 19763 49% 28 81094 2277 95%
c I 11.83 19 48 33 15454 171033 22158 49% 29 81094 2277 95%
c - 12.24 19 49 34 15458 178519 20292 50% 29 81094 2277 95%
c p 12.35 19 48 34 15458 180006 21716 51% 29 81094 2277 95%
c - 12.95 18 48 35 15465 189021 20228 52% 30 81094 2277 95%
c B 13.02 18 48 35 15465 190034 21024 52% 30 81094 2277 95%
c s 13.21 22 48 35 15465 192252 22890 52% 30 80459 2277 95%
c v 13.27 22 48 35 15465 192252 22890 52% 30 80326 2277 95%
c w 13.30 22 48 35 15465 192252 22868 52% 30 80326 2277 95%
c 
c  seconds  reductions        redundant   irredundant
c         MB      restarts           trail      variables
c          level       conflicts         glue        remaining
c 
c t 13.30 22 48 35 15465 192252 22867 52% 30 80326 2277 95%
c e 13.32 22 48 35 15465 192252 22825 52% 30 80326 2276 95%
c s 13.36 22 48 35 15465 192252 22775 52% 30 80326 2276 95%
c ] 13.53 22 49 35 15466 195298 25704 52% 30 80326 2276 95%
c 1 13.53 22 49 35 15466 195298 25704 52% 30 80326 2276 95%
c 
c --- [ result ] -------------------------------------------------------------
c 
s SATISFIABLE
v 1 2 3 4 -5 -6 7 -8 -9 -10 -11 -12 -13 14 15 -16 -17 -18 19 20 21 -22 -23 24
v 25 -26 27 28 29 -30 31 32 33 34 -35 36 37 38 39 -40 -41 -42 43 -44 45 46 47
v -48 49 -50 51 -52 53 54 -55 -56 57 -58 -59 60 61 -62 -63 64 -65 66 67 -68 69
v 70 71 -72 -73 -74 -75 -76 77 78 -79 -80 -81 82 -83 84 -85 86 -87 -88 -89 -90
v 91 -92 93 -94 95 -96 97 98 99 100 -101 -102 103 -104 105 -106 107 108 109
v -110 111 112 -113 -114 -115 -116 -117 118 -119 -120 -121 122 -123 -124 125
v -126 127 128 129 -130 -131 -132 -133 -134 -135 -136 -137 138 139 -140 141
v 142 143 144 -145 146 147 -148 -149 150 151 -152 -153 -154 155 -156 157 -158
v 159 160 -161 -162 163 -164 165 166 167 168 169 170 171 -172 173 174 -175 176
v 177 178 -179 180 181 182 -183 184 -185 186 187 -188 -189 190 191 -192 193
v 194 195 196 197 198 199 -200 201 202 -203 -204 -205 -206 207 -208 209 -210
v -211 -212 -213 -214 -215 216 217 -218 -219 -220 221 222 223 224 -225 -226
v 227 228 229 230 -231 -232 -233 234 -235 236 237 -238 -239 240 -241 -242 243
v -244 -245 246 247 248 -249 250 -251 252 -253 254 255 256 257 -258 259 -260
v -261 -262 -263 264 -265 -266 267 -268 269 270 -271 272 273 274 -275 276 277
v 278 -279 -280 -281 282 -283 -284 285 286 -287 288 -289 290 291 292 -293 294
v -295 -296 297 298 299 -300 301 302 -303 304 -305 -306 -307 308 -309 -310 311
v 312 313 -314 315 -316 -317 318 319 -320 321 -322 -323 324 -325 -326 327 -328
v -329 -330 331 -332 333 -334 -335 -336 -337 -338 -339 340 -341 -342 343 344
v 345 -346 -347 348 349 350 -351 -352 353 354 -355 356 -357 -358 359 360 361
v 362 -363 -364 365 366 367 368 -369 370 371 -372 -373 -374 375 -376 -377 -378
v -379 -380 -381 382 -383 384 385 386 -387 -388 -389 -390 391 -392 393 -394
v 395 396 397 -398 -399 400 -401 -402 403 404 -405 -406 -407 -408 409 -410 411
v -412 413 -414 415 416 417 -418 -419 420 -421 422 423 -424 -425 -426 427 428
v -429 -430 -431 -432 -433 434 435 -436 -437 438 439 -440 441 442 -443 444 445
v -446 -447 -448 449 -450 -451 -452 453 -454 -455 -456 -457 458 -459 -460 -461
v -462 -463 -464 465 466 -467 -468 469 470 -471 -472 -473 474 -475 -476 -477
v 478 479 -480 481 -482 -483 -484 485 -486 487 -488 -489 490 -491 492 -493 494
v 495 -496 -497 498 499 -500 -501 -502 503 504 -505 -506 507 508 -509 -510
v -511 -512 -513 514 515 516 517 518 519 520 -521 -522 -523 -524 525 -526 527
v 528 529 530 531 -532 533 -534 -535 -536 537 -538 -539 540 541 -542 -543 -544
v -545 -546 -547 548 549 550 551 -552 -553 554 -555 -556 -557 558 559 560 -561
v -562 -563 564 -565 566 567 568 -569 570 571 -572 -573 574 575 576 577 578
v -579 -580 -581 -582 -583 584 -585 -586 587 -588 -589 -590 591 -592 -593 -594
v -595 -596 -597 598 599 600 601 602 -603 -604 -605 -606 -607 608 -609 -610
v -611 612 613 -614 -615 -616 -617 -618 -619 -620 621 -622 -623 624 -625 -626
v -627 -628 -629 630 -631 632 -633 -634 -635 -636 637 638 -639 -640 641 -642
v -643 644 645 646 -647 -648 -649 -650 -651 652 -653 654 655 656 657 658 659
v -660 -661 662 -663 -664 665 -666 -667 -668 -669 -670 -671 -672 673 674 675
v 676 677 -678 679 680 -681 -682 -683 684 -685 -686 687 688 689 -690 -691 -692
v 693 694 695 -696 697 -698 699 700 701 -702 -703 704 705 706 707 708 709 710
v 711 -712 713 -714 -715 -716 -717 -718 -719 720 -721 722 -723 -724 -725 -726
v -727 728 729 -730 -731 -732 733 -734 -735 736 -737 -738 739 740 741 -742
v -743 -744 -745 746 -747 -748 749 -750 -751 752 -753 -754 755 -756 757 -758
v -759 760 -761 -762 763 764 -765 -766 -767 768 769 770 -771 -772 773 774 -775
v -776 -777 -778 -779 780 -781 -782 -783 784 -785 786 -787 788 789 -790 791
v 792 793 -794 -795 796 -797 -798 799 800 -801 -802 803 -804 -805 806 807 -808
v 809 810 811 812 -813 814 815 816 817 818 819 -820 -821 822 823 -824 825 826
v 827 -828 829 830 831 -832 -833 834 835 836 -837 838 -839 840 -841 -842 -843
v -844 -845 846 -847 848 -849 -850 -851 852 -853 854 -855 -856 857 -858 -859
v 860 861 -862 -863 864 -865 -866 -867 868 -869 870 -871 872 -873 874 875 876
v -877 -878 879 880 -881 -882 -883 884 885 886 887 888 889 890 -891 892 -893
v -894 -895 896 -897 898 -899 -900 901 -902 -903 -904 -905 906 -907 908 -909
v 910 -911 912 913 -914 -915 916 -917 918 919 920 -921 922 -923 -924 -925 -926
v -927 -928 929 -930 931 -932 933 -934 935 -936 -937 -938 939 -940 941 942
v -943 944 945 946 947 948 -949 950 951 952 -953 -954 -955 -956 -957 -958 959
v -960 961 962 -963 -964 -965 -966 967 968 969 -970 -971 -972 -973 974 -975
v 976 977 978 -979 -980 981 -982 -983 984 -985 986 -987 -988 989 990 -991 992
v 993 994 -995 -996 -997 998 -999 -1000 -1001 -1002 -1003 -1004 1005 1006 1007
v -1008 -1009 1010 1011 -1012 -1013 1014 1015 1016 -1017 1018 -1019 1020 1021
v 1022 -1023 -1024 1025 -1026 -1027 1028 -1029 1030 1031 1032 1033 -1034 -1035
v 1036 -1037 1038 1039 1040 1041 1042 -1043 -1044 -1045 -1046 -1047 -1048
v -1049 -1050 -1051 -1052 -1053 -1054 1055 1056 -1057 1058 1059 -1060 -1061
v 1062 1063 -1064 -1065 1066 -1067 1068 1069 -1070 -1071 -1072 -1073 -1074
v -1075 1076 1077 1078 -1079 -1080 -1081 1082 -1083 1084 -1085 1086 1087 1088
v 1089 1090 -1091 -1092 -1093 -1094 1095 1096 -1097 -1098 -1099 1100 1101
v -1102 1103 -1104 -1105 1106 -1107 -1108 1109 1110 1111 -1112 1113 1114 1115
v 1116 1117 -1118 -1119 -1120 -1121 -1122 -1123 -1124 -1125 -1126 -1127 1128
v 1129 -1130 -1131 1132 -1133 1134 -1135 -1136 1137 1138 1139 -1140 1141 -1142
v -1143 -1144 1145 -1146 -1147 -1148 1149 -1150 1151 -1152 -1153 1154 1155
v -1156 -1157 -1158 1159 -1160 -1161 -1162 -1163 1164 1165 1166 -1167 -1168
v -1169 1170 -1171 1172 1173 1174 -1175 -1176 -1177 -1178 -1179 1180 -1181
v 1182 -1183 1184 1185 1186 1187 -1188 -1189 1190 1191 1192 -1193 1194 1195
v 1196 1197 1198 1199 1200 1201 1202 1203 -1204 -1205 1206 -1207 -1208 1209
v -1210 1211 -1212 -1213 -1214 1215 -1216 1217 -1218 -1219 -1220 1221 1222
v 1223 -1224 1225 1226 1227 1228 -1229 -1230 -1231 1232 -1233 -1234 -1235 1236
v -1237 1238 1239 -1240 -1241 -1242 -1243 1244 1245 -1246 -1247 1248 -1249
v -1250 1251 1252 1253 1254 1255 -1256 -1257 1258 -1259 -1260 -1261 -1262 1263
v -1264 1265 -1266 1267 1268 1269 -1270 1271 1272 1273 1274 1275 -1276 1277
v -1278 1279 1280 -1281 1282 1283 -1284 1285 -1286 -1287 1288 1289 1290 -1291
v -1292 1293 -1294 -1295 -1296 -1297 -1298 1299 1300 -1301 1302 -1303 1304
v -1305 1306 1307 1308 -1309 1310 -1311 1312 -1313 1314 -1315 1316 1317 -1318
v -1319 -1320 1321 -1322 1323 -1324 -1325 1326 1327 1328 1329 1330 -1331 1332
v -1333 1334 1335 -1336 -1337 -1338 1339 1340 -1341 -1342 -1343 1344 1345 1346
v 1347 -1348 -1349 -1350 1351 -1352 1353 -1354 1355 1356 1357 -1358 -1359
v -1360 -1361 -1362 -1363 1364 -1365 -1366 -1367 -1368 -1369 1370 1371 1372
v -1373 1374 1375 -1376 1377 1378 -1379 -1380 1381 -1382 1383 1384 1385 1386
v -1387 1388 -1389 -1390 -1391 -1392 -1393 -1394 -1395 -1396 1397 -1398 1399
v 1400 1401 -1402 -1403 -1404 1405 -1406 -1407 -1408 1409 1410 1411 1412 1413
v -1414 1415 -1416 1417 -1418 1419 -1420 -1421 -1422 -1423 1424 1425 1426 1427
v 1428 1429 -1430 -1431 1432 1433 1434 -1435 -1436 -1437 -1438 1439 1440 -1441
v 1442 -1443 1444 -1445 1446 -1447 -1448 -1449 1450 1451 1452 -1453 -1454 1455
v -1456 -1457 -1458 1459 -1460 -1461 -1462 -1463 -1464 1465 -1466 -1467 -1468
v -1469 1470 -1471 1472 -1473 1474 -1475 1476 -1477 -1478 1479 -1480 -1481
v -1482 1483 1484 1485 1486 1487 -1488 1489 -1490 -1491 1492 1493 1494 -1495
v 1496 -1497 1498 1499 1500 1501 1502 -1503 1504 -1505 -1506 1507 -1508 -1509
v -1510 1511 -1512 -1513 1514 1515 1516 -1517 1518 -1519 1520 1521 -1522 -1523
v 1524 1525 1526 1527 1528 -1529 -1530 -1531 -1532 -1533 1534 1535 1536 1537
v -1538 1539 1540 1541 -1542 -1543 1544 1545 1546 1547 -1548 1549 -1550 1551
v 1552 1553 -1554 -1555 -1556 -1557 1558 -1559 -1560 -1561 1562 -1563 -1564
v -1565 -1566 -1567 -1568 1569 1570 -1571 1572 -1573 -1574 1575 1576 1577 1578
v -1579 -1580 1581 -1582 1583 1584 -1585 -1586 -1587 -1588 -1589 -1590 -1591
v 1592 1593 -1594 1595 -1596 -1597 -1598 -1599 -1600 -1601 1602 1603 1604 1605
v -1606 1607 -1608 1609 -1610 1611 -1612 1613 1614 -1615 -1616 1617 1618 1619
v -1620 -1621 1622 -1623 -1624 -1625 -1626 1627 1628 -1629 -1630 -1631 1632
v 1633 1634 1635 -1636 1637 1638 1639 1640 1641 1642 -1643 1644 1645 1646
v -1647 -1648 1649 1650 1651 1652 -1653 1654 -1655 -1656 -1657 -1658 -1659
v 1660 -1661 -1662 -1663 -1664 -1665 -1666 1667 -1668 1669 1670 1671 -1672
v -1673 1674 -1675 -1676 1677 1678 -1679 -1680 -1681 1682 -1683 -1684 1685
v 1686 -1687 -1688 -1689 -1690 -1691 -1692 1693 -1694 1695 1696 1697 -1698
v -1699 1700 -1701 1702 1703 -1704 1705 -1706 -1707 1708 -1709 -1710 -1711
v 1712 1713 1714 1715 1716 -1717 -1718 -1719 1720 -1721 1722 1723 -1724 1725
v -1726 -1727 -1728 1729 1730 -1731 1732 -1733 -1734 1735 -1736 -1737 1738
v 1739 1740 1741 1742 -1743 -1744 1745 -1746 1747 -1748 1749 1750 -1751 1752
v -1753 1754 1755 -1756 1757 1758 -1759 1760 -1761 1762 -1763 -1764 1765 1766
v 1767 1768 1769 1770 1771 1772 -1773 -1774 -1775 -1776 -1777 -1778 -1779 1780
v 1781 1782 1783 -1784 -1785 1786 -1787 -1788 -1789 -1790 1791 1792 -1793
v -1794 1795 1796 -1797 -1798 -1799 -1800 -1801 -1802 -1803 1804 -1805 1806
v -1807 -1808 1809 1810 1811 1812 1813 -1814 -1815 -1816 -1817 1818 -1819 1820
v -1821 1822 1823 1824 -1825 1826 1827 -1828 -1829 1830 -1831 -1832 -1833 1834
v 1835 -1836 -1837 -1838 1839 -1840 -1841 1842 -1843 1844 -1845 1846 1847
v -1848 1849 1850 1851 -1852 -1853 1854 -1855 1856 1857 -1858 -1859 -1860 1861
v -1862 -1863 -1864 1865 -1866 -1867 -1868 -1869 -1870 -1871 -1872 1873 1874
v -1875 1876 1877 1878 1879 1880 1881 1882 1883 -1884 1885 -1886 -1887 -1888
v -1889 1890 -1891 -1892 -1893 -1894 1895 1896 1897 1898 1899 -1900 1901 1902
v -1903 -1904 -1905 -1906 -1907 1908 1909 1910 -1911 -1912 1913 1914 1915 1916
v 1917 1918 -1919 1920 -1921 1922 1923 -1924 -1925 -1926 1927 -1928 -1929 1930
v -1931 1932 -1933 1934 -1935 -1936 1937 1938 -1939 1940 1941 1942 1943 -1944
v -1945 -1946 1947 -1948 -1949 -1950 -1951 1952 1953 -1954 1955 1956 -1957
v 1958 1959 1960 -1961 1962 1963 1964 1965 -1966 -1967 -1968 -1969 -1970 1971
v -1972 -1973 1974 1975 -1976 1977 1978 1979 1980 -1981 1982 1983 -1984 1985
v 1986 -1987 1988 1989 -1990 1991 1992 1993 1994 1995 -1996 1997 1998 -1999
v 2000 2001 -2002 -2003 2004 -2005 -2006 2007 -2008 -2009 -2010 2011 -2012
v 2013 -2014 -2015 -2016 -2017 -2018 2019 2020 2021 -2022 -2023 -2024 -2025
v 2026 2027 -2028 -2029 -2030 2031 -2032 -2033 2034 -2035 -2036 -2037 -2038
v 2039 2040 -2041 -2042 -2043 -2044 2045 -2046 -2047 -2048 2049 -2050 2051
v 2052 -2053 -2054 -2055 -2056 -2057 -2058 2059 -2060 -2061 -2062 -2063 2064
v 2065 -2066 2067 2068 2069 -2070 2071 -2072 -2073 2074 2075 -2076 -2077 2078
v -2079 2080 2081 2082 2083 2084 2085 2086 -2087 -2088 -2089 -2090 2091 -2092
v -2093 2094 2095 2096 2097 2098 2099 -2100 -2101 -2102 2103 -2104 -2105 -2106
v 2107 -2108 -2109 -2110 -2111 -2112 -2113 2114 -2115 -2116 -2117 -2118 -2119
v 2120 -2121 -2122 -2123 -2124 2125 -2126 -2127 -2128 -2129 -2130 -2131 -2132
v 2133 -2134 2135 2136 2137 2138 -2139 -2140 2141 -2142 2143 -2144 -2145 -2146
v 2147 -2148 -2149 2150 2151 -2152 -2153 -2154 -2155 2156 2157 -2158 -2159
v 2160 2161 2162 2163 -2164 -2165 -2166 2167 -2168 2169 -2170 -2171 2172 2173
v -2174 -2175 -2176 -2177 -2178 2179 -2180 -2181 2182 -2183 -2184 -2185 2186
v -2187 2188 2189 2190 -2191 2192 2193 -2194 2195 -2196 -2197 2198 -2199 2200
v -2201 2202 2203 -2204 -2205 -2206 -2207 -2208 -2209 -2210 2211 2212 -2213
v -2214 2215 2216 2217 2218 2219 -2220 2221 -2222 -2223 2224 2225 -2226 2227
v -2228 2229 2230 -2231 -2232 -2233 -2234 -2235 -2236 2237 2238 2239 -2240
v 2241 -2242 -2243 2244 2245 2246 -2247 2248 -2249 -2250 2251 2252 2253 2254
v -2255 2256 -2257 -2258 2259 -2260 2261 -2262 -2263 -2264 -2265 -2266 2267
v -2268 -2269 -2270 -2271 2272 -2273 2274 2275 -2276 -2277 2278 2279 -2280
v 2281 -2282 2283 -2284 -2285 -2286 -2287 2288 -2289 -2290 2291 -2292 2293
v 2294 -2295 2296 2297 2298 -2299 2300 -2301 2302 -2303 2304 2305 -2306 2307
v 2308 -2309 2310 -2311 2312 -2313 2314 -2315 -2316 -2317 2318 2319 2320 2321
v -2322 2323 -2324 2325 -2326 -2327 2328 2329 2330 -2331 -2332 -2333 -2334
v -2335 2336 -2337 -2338 2339 -2340 2341 -2342 2343 -2344 2345 -2346 -2347
v 2348 2349 2350 -2351 -2352 2353 -2354 2355 2356 2357 2358 -2359 2360 2361
v 2362 -2363 2364 2365 2366 -2367 2368 2369 2370 2371 -2372 2373 -2374 -2375
v 2376 -2377 2378 -2379 2380 2381 2382 -2383 -2384 2385 -2386 2387 -2388 -2389
v -2390 2391 -2392 2393 -2394 -2395 -2396 0
c 
c --- [ run-time profiling ] -------------------------------------------------
c 
c process time taken by individual solving procedures
c (percentage relative to process time for solving)
c 
c        12.57   93.49% search
c         6.23   46.31% stable
c         5.95   44.27% unstable
c         0.88    6.51% simplify
c         0.39    2.89% walk
c         0.29    2.15% subsume
c         0.28    2.07% vivify
c         0.15    1.08% elim
c         0.08    0.62% parse
c         0.06    0.45% ternary
c         0.02    0.14% probe
c         0.00    0.01% lucky
c   =================================
c        13.45   99.37% solve
c 
c last line shows process time for solving
c (percentage relative to total process time)
c 
c --- [ statistics ] ---------------------------------------------------------
c 
c chronological:             55142        28.23 %  of conflicts
c conflicts:                195298     14525.19    per second
c decisions:               1040690     77400.81    per second
c eliminated:                   92         3.84 %  of all variables
c fixed:                         6         0.25 %  of all variables
c learned:                  191445        98.03 %  per conflict
c learned_lits:            7849069       100.00 %  learned literals
c minimized:                     0         0.00 %  learned literals
c shrunken:                1130116        14.40 %  learned literals
c minishrunken:             433032         5.52 %  learned literals
c otfs:                        808         0.41 %  of conflict
c propagations:           37572275         2.79 M  per second
c reduced:                  146394        74.96 %  per conflict
c rephased:                     19     10278.84    interval
c restarts:                  15466        12.63    interval
c stabilizing:                   4        56.46 %  of conflicts
c substituted:                  22         0.92 %  of all variables
c subsumed:                  14724         5.24 %  of all clauses
c strengthened:               4435         1.58 %  of all clauses
c ternary:                    1203         0.70 %  of resolved
c trail reuses:                  0         0.00 %  of incremental calls
c vivified:                    363         0.13 %  of all clauses
c walked:                        5     39059.60    interval
c weakened:                    311         2.31    average size
c 
c seconds are measured in process time for solving
c 
c --- [ resources ] ----------------------------------------------------------
c 
c total process time since initialization:        13.53    seconds
c total real time since initialization:           13.53    seconds
c maximum resident set size of process:           30.90    MB
c 
c --- [ shutting down ] ------------------------------------------------------
c 
c exit 10
